data/instances/vrp_files/train_63.vrp
NAME : 63
COMMENT : Generated instance No. 63
TYPE : CVRP
DIMENSION : 21
EDGE_WEIGHT_TYPE : EUC_2D
CAPACITY : 30
NODE_COORD_SECTION
 1 611 678
 2 509 501
 3 50 34
 4 551 438
 5 839 160
 6 24 449
 7 237 49
 8 724 111
 9 608 281
 10 173 379
 11 801 392
 12 750 125
 13 772 236
 14 677 565
 15 929 387
 16 66 19
 17 826 524
 18 775 234
 19 345 30
 20 961 667
 21 933 265
DEMAND_SECTION
1 0
2 6
3 2
4 6
5 7
6 5
7 3
8 4
9 4
10 6
11 10
12 1
13 4
14 10
15 4
16 10
17 1
18 9
19 4
20 7
21 3
DEPOT_SECTION
 1
 -1
EOF